c1_10_5

VEHICLE
NUMBER   CAPACITY
250     200

CUSTOMER
CUST NO. XCOORD.  YCOORD.  DEMAND  READY TIME DUE DATE  SERVICE TIME

0   250    250     0     0    1824     0
2 5 297 10 931 1041 90
736 35 304 30 252 372 90
407 3 292 20 376 486 90
34 35 306 20 347 461 90
53 7 300 30 1034 1125 90
937 7 292 10 246 380 90
934 0 293 30 570 657 90
744 30 301 10 637 748 90
61 30 302 10 536 668 90
62 8 300 10 1125 1216 90
181 6 292 10 288 387 90
720 0 297 10 639 776 90
911 38 301 20 720 862 90
912 25 307 10 442 567 90
922 35 303 20 221 353 90
102 1 293 10 449 597 90
126 2 295 30 741 860 90
265 6 296 10 830 959 90
